c description: Random 3-CNF over 13 variables and 16 clauses
c generator: CNFgen (0.9.0)
c copyright: (C) 2012-2020 Massimo Lauria <massimo.lauria@uniroma1.it>
c url: https://massimolauria.net/cnfgen
c
p cnf 13 16
-1 9 -12 0
3 -5 7 0
5 -7 9 0
-2 9 -11 0
-3 -4 10 0
-3 11 13 0
-3 8 11 0
2 10 13 0
1 3 5 0
-3 6 -7 0
-1 8 12 0
2 5 -8 0
-3 5 -7 0
10 11 -13 0
-1 -5 -13 0
2 -10 11 0